/*********************************************
 * OPL 12.9.0.0 Data
 * Author: smatcovici
 * Creation Date: Oct 14, 2019 at 3:21:06 PM
 *********************************************/
NoSquares = 21;
MasterSquareSize = 112;
SquareSizes = [2,4,6,7,8,9,11,15,16,17,18,19,24,25,27,29,33,35,37,42,50];